p cnf 140 422
c t mc
-1 2 -3 0
1 -2 -3 0
-1 -2 3 0
1 2 3 0
-5 3 0
-5 4 0
-3 -4 5 0
5 -6 -7 0
-5 6 -7 0
5 6 7 0
-5 -6 7 0
7 8 -9 0
-7 -8 -9 0
7 -8 9 0
-7 8 9 0
12 10 0
12 -11 0
-10 11 -12 0
-14 -15 -16 0
14 15 -16 0
-14 15 16 0
14 -15 16 0
-13 16 -17 0
13 -16 -17 0
-13 -16 17 0
13 16 17 0
-12 -17 -18 0
12 17 -18 0
-12 17 18 0
12 -17 18 0
-19 18 0
-19 -6 0
-18 6 19 0
20 9 0
20 -19 0
-9 19 -20 0
-21 -13 -22 0
21 13 -22 0
-21 13 22 0
21 -13 22 0
23 24 -25 0
-23 -24 -25 0
23 -24 25 0
-23 24 25 0
-27 28 0
27 28 0
-29 -5 0
-29 28 0
5 -28 29 0
-30 -26 0
-30 29 0
26 -29 30 0
-1 -21 -31 0
1 21 -31 0
-1 21 31 0
1 -21 31 0
-32 -4 0
-32 -8 0
4 8 32 0
-33 -31 0
-33 -32 0
31 32 33 0
30 -33 -34 0
-30 33 -34 0
30 33 34 0
-30 -33 34 0
35 25 0
35 34 0
-25 -34 -35 0
-38 12 0
-38 37 0
-12 -37 38 0
-39 8 0
-39 38 0
-8 -38 39 0
36 -39 -40 0
-36 39 -40 0
36 39 40 0
-36 -39 40 0
-41 27 0
-41 2 0
-27 -2 41 0
42 -40 0
42 -41 0
40 41 -42 0
-43 35 0
-43 42 0
-35 -42 43 0
46 45 0
46 23 0
-45 -23 -46 0
-47 44 0
-47 46 0
-44 -46 47 0
-48 15 0
-48 44 0
-15 -44 48 0
-49 21 0
-49 -5 0
-21 5 49 0
-50 48 0
-50 -49 0
-48 49 50 0
51 -47 0
51 -50 0
47 50 -51 0
52 43 0
52 -51 0
-43 51 -52 0
-53 -22 0
-53 52 0
22 -52 53 0
-20 53 -54 0
20 -53 -54 0
-20 -53 54 0
20 53 54 0
-56 -55 0
-56 -31 0
55 31 56 0
-57 29 0
-57 -56 0
-29 56 57 0
57 -56 -58 0
-57 56 -58 0
57 56 58 0
-57 -56 58 0
-59 -45 0
-59 -8 0
45 8 59 0
-61 59 0
-61 -60 0
-59 60 61 0
-62 37 0
-62 31 0
-37 -31 62 0
-63 62 0
-63 -41 0
-62 41 63 0
64 61 0
64 -63 0
-61 63 -64 0
-65 -1 0
-65 60 0
1 -60 65 0
66 -65 0
66 11 0
65 -11 -66 0
-67 -62 0
-67 66 0
62 -66 67 0
-68 -33 0
-68 7 0
33 -7 68 0
-69 55 0
-69 3 0
-55 -3 69 0
-29 -70 -71 0
29 70 -71 0
-29 70 71 0
29 -70 71 0
69 71 -72 0
-69 -71 -72 0
69 -71 72 0
-69 71 72 0
73 -68 0
73 -72 0
68 72 -73 0
-75 -3 0
-75 -74 0
3 74 75 0
76 -55 0
76 -75 0
55 75 -76 0
-77 6 0
-77 -74 0
-6 74 77 0
79 77 0
79 -78 0
-77 78 -79 0
-80 -31 0
-80 79 0
31 -79 80 0
1 80 -81 0
-1 -80 -81 0
1 -80 81 0
-1 80 81 0
82 -11 0
82 -81 0
11 81 -82 0
-76 82 -83 0
76 -82 -83 0
-76 -82 83 0
76 82 83 0
84 -73 0
84 83 0
73 -83 -84 0
-67 -84 -85 0
67 84 -85 0
-67 84 85 0
67 -84 85 0
-86 6 0
-86 -75 0
-6 75 86 0
-48 -56 -87 0
48 56 -87 0
-48 56 87 0
48 -56 87 0
-88 86 0
-88 87 0
-86 -87 88 0
89 -85 0
89 -88 0
85 88 -89 0
90 64 0
90 -89 0
-64 89 -90 0
91 -58 0
91 90 0
58 -90 -91 0
-92 -81 0
-92 -75 0
81 75 92 0
93 -91 0
93 92 0
91 -92 -93 0
94 41 0
94 56 0
-41 -56 -94 0
-95 -75 0
-95 -74 0
75 74 95 0
-96 94 0
-96 95 0
-94 -95 96 0
-97 -26 0
-97 -31 0
26 31 97 0
-98 96 0
-98 -97 0
-96 97 98 0
3 26 -99 0
-3 -26 -99 0
3 -26 99 0
-3 26 99 0
-2 77 -100 0
2 -77 -100 0
-2 -77 100 0
2 77 100 0
102 100 0
102 -101 0
-100 101 -102 0
-103 -5 0
-103 -21 0
5 21 103 0
104 -102 0
104 -103 0
102 103 -104 0
-105 99 0
-105 104 0
-99 -104 105 0
107 94 0
107 -106 0
-94 106 -107 0
-8 -3 -108 0
8 3 -108 0
-8 3 108 0
8 -3 108 0
-110 -10 0
-110 -109 0
10 109 110 0
-111 108 0
-111 110 0
-108 -110 111 0
-112 107 0
-112 111 0
-107 -111 112 0
113 -105 0
113 112 0
105 -112 -113 0
114 98 0
114 -113 0
-98 113 -114 0
115 -26 0
115 27 0
26 -27 -115 0
1 10 -116 0
-1 -10 -116 0
1 -10 116 0
-1 10 116 0
-12 106 -117 0
12 -106 -117 0
-12 -106 117 0
12 106 117 0
116 117 -118 0
-116 -117 -118 0
116 -117 118 0
-116 117 118 0
119 -115 0
119 118 0
115 -118 -119 0
78 100 -120 0
-78 -100 -120 0
78 -100 120 0
-78 100 120 0
119 -120 -121 0
-119 120 -121 0
119 120 121 0
-119 -120 121 0
-114 -121 -122 0
114 121 -122 0
-114 121 122 0
114 -121 122 0
-124 -37 0
-124 -32 0
37 32 124 0
125 -123 0
125 -124 0
123 124 -125 0
122 125 -126 0
-122 -125 -126 0
122 -125 126 0
-122 125 126 0
93 -126 -127 0
-93 126 -127 0
93 126 127 0
-93 -126 127 0
128 109 0
128 -37 0
-109 37 -128 0
129 66 0
129 -101 0
-66 101 -129 0
-128 129 -130 0
128 -129 -130 0
-128 -129 130 0
128 129 130 0
-57 -2 -131 0
57 2 -131 0
-57 2 131 0
57 -2 131 0
-132 -28 0
-132 101 0
28 -101 132 0
133 -8 0
133 77 0
8 -77 -133 0
-134 -132 0
-134 -133 0
132 133 134 0
135 131 0
135 -134 0
-131 134 -135 0
130 135 -136 0
-130 -135 -136 0
130 -135 136 0
-130 135 136 0
-137 -123 0
-137 74 0
123 -74 137 0
138 136 0
138 -137 0
-136 137 -138 0
127 -138 -139 0
-127 138 -139 0
127 138 139 0
-127 -138 139 0
140 54 0
140 -139 0
-54 139 -140 0
-33 -51 98 8 50 -121 101 0
-93 83 -25 -132 -133 43 -121 -87 -129 82 0
129 -93 -91 -26 0
124 2 120 58 -30 78 -29 80 0
-84 50 -122 0
-110 1 -33 13 99 0
19 -9 -20 139 -121 49 0
-76 -92 -55 114 74 119 27 -34 0
86 122 124 -55 -61 -85 3 77 94 0
-47 76 -86 0
-21 108 -66 0
-72 49 -65 0
128 35 97 -112 79 93 -23 0
-55 -16 97 65 0
-7 136 81 11 -83 84 74 -102 0
-100 111 123 90 84 -103 21 7 0
-7 -59 -95 -64 -125 138 -81 -129 62 0
111 -38 53 -107 -34 98 0
-52 82 18 27 0
-64 -137 -34 -43 21 -61 7 -59 0
104 86 24 78 88 -19 50 -92 -51 0
107 -8 48 -131 85 39 -136 0
-25 -66 -35 0
-57 -138 58 -38 -23 -81 0
8 53 19 38 64 -23 0
-75 -38 36 43 0
60 36 -80 2 97 0
-6 -137 136 56 -69 -132 0
17 -29 -15 11 105 131 -129 -41 0
138 -126 -97 105 -36 99 -96 -44 0
12 -29 20 -42 102 139 82 0
20 -106 134 0
-122 -42 -137 -32 -17 0
93 135 104 53 -126 -115 36 0
110 26 114 10 0
62 -121 -19 -87 -28 -63 -1 0
120 -5 67 -86 -17 22 121 114 96 0
-119 -25 -24 -39 140 128 116 -131 -22 -109 0
-28 64 -22 25 108 -42 14 0
-127 65 -135 0
-43 -27 -17 2 0
-37 -14 -66 69 0
-131 49 -24 116 11 -72 96 110 0
22 100 -10 -102 -140 0
-111 -20 -96 29 0
-123 22 50 49 0
-133 107 -124 0
126 97 105 32 -67 -104 0
26 -124 19 -17 54 27 11 0
-33 110 99 -50 15 107 93 -8 1 0
115 118 59 -60 -108 54 -127 -130 0
22 -3 -93 14 0
140 0
